\ Model mip1
\ LP format - for model browsing. Use MPS format to capture full model detail.
Minimize
  150 xw + 230 xc + 260 xb + 47.6 y(1)(1) - 34 y(1)(2) + 42 y(1)(3)
   - 30 y(1)(4) - 7.2 y(1)(5) - 2 y(1)(6) + 47.6 y(2)(1) - 34 y(2)(2)
   + 42 y(2)(3) - 30 y(2)(4) - 7.2 y(2)(5) - 2 y(2)(6) + 71.4 y(3)(1)
   - 51 y(3)(2) + 63 y(3)(3) - 45 y(3)(4) - 10.8 y(3)(5) - 3 y(3)(6)
   + 35.7 y(4)(1) - 25.5 y(4)(2) + 31.5 y(4)(3) - 22.5 y(4)(4)
   - 5.4 y(4)(5) - 1.5 y(4)(6) + 35.7 y(5)(1) - 25.5 y(5)(2) + 31.5 y(5)(3)
   - 22.5 y(5)(4) - 5.4 y(5)(5) - 1.5 y(5)(6)
Subject To
 c0: xw + xc + xb <= 500
 c1: 1.75 xw + y(1)(1) - y(1)(2) >= 200
 c2: 2.1 xc + y(1)(3) - y(1)(4) >= 240
 c3: - 14 xb + y(1)(5) + y(1)(6) <= 0
 c4: y(1)(5) <= 5000
 c5: 2 xw + y(2)(1) - y(2)(2) >= 200
 c6: 2.4 xc + y(2)(3) - y(2)(4) >= 240
 c7: - 16 xb + y(2)(5) + y(2)(6) <= 0
 c8: y(2)(5) <= 5500
 c9: 2.5 xw + y(3)(1) - y(3)(2) >= 200
 c10: 3 xc + y(3)(3) - y(3)(4) >= 240
 c11: - 20 xb + y(3)(5) + y(3)(6) <= 0
 c12: y(3)(5) <= 6000
 c13: 3.125 xw + y(4)(1) - y(4)(2) >= 200
 c14: 3.75 xc + y(4)(3) - y(4)(4) >= 240
 c15: - 25 xb + y(4)(5) + y(4)(6) <= 0
 c16: y(4)(5) <= 7000
 c17: 3.375 xw + y(5)(1) - y(5)(2) >= 200
 c18: 4.05 xc + y(5)(3) - y(5)(4) >= 240
 c19: - 27 xb + y(5)(5) + y(5)(6) <= 0
 c20: y(5)(5) <= 7500
Bounds
End
